webassembly/ejemplos_dzn/16/folder16_json_18.dzn
TERM = { '.', 's(2)', 's(4)', 'in_1', 'local_0', 'local_1', 'in_6', 'in_2', 'in_4', 'in_3', 's(1)', 's(0)', 'in_5', 's(3)', 'in_0'};
null = '.';
s = 16;
n = 12;
ndeps = 8;
max_registers_sz = 4;
NR = 1;
registers = [|'local_0', 's(3)'|];
dependencies = [|'i32.store16_1', 'i32.load8_s_7', |'i32.load8_s_7', 'i32.store8_8', |'i32.store8_8', 'i32.load16_s_10', |'i32.store8_8', 'i32.load_12', |'i32.store8_8', 'i32.load8_u_14', |'i32.load16_s_10', 'i32.store16_15', |'i32.load_12', 'i32.store16_15', |'i32.load8_u_14', 'i32.store16_15'|];
GET_ENUM = { GET1, GET2, GET3, GET4, GET5};
SET_ENUM = { SET1, SET2, SET3, SET4, SET5};
TEE_ENUM = { TEE1, TEE2, TEE3, TEE4, TEE5};
N = 9;
OP = { 'i32.sub_0', 'i32.store16_1', 'i32.load8_s_7', 'i32.store8_8', 'i32.load16_s_10', 'i32.load_12', 'i32.load8_u_14', 'i32.store16_15', 'local.get_0' };
in_ops = [2, 2, 1, 2, 1, 1, 1, 2, 0 ];
out_ops = [1, 0, 1, 0, 1, 1, 1, 0, 1 ];
in1 = ['in_0', 's(0)', 'local_1', 's(1)', 'in_4', 'in_5', 's(3)', 's(4)', '.' ];
in2 = ['in_1', 'in_2', '.', 'local_1', '.', '.', '.', 'in_6', '.' ];
in3 = ['.', '.', '.', '.', '.', '.', '.', '.', '.' ];
out1 = ['s(0)', '.', 's(1)', '.', 's(2)', 's(3)', 's(4)', '.', 'local_1' ];
out2 = ['.', '.', '.', '.', '.', '.', '.', '.', '.' ];
out3 = ['.', '.', '.', '.', '.', '.', '.', '.', '.' ];
comm = [false, false, false, false, false, false, false, false, false ];
gas = [1, 1, 1, 1, 1, 1, 1, 1, 1 ];
sz = [1, 1, 1, 1, 1, 1, 1, 1, 1 ];
stor = [false, true, false, true, false, false, false, true, false ];
lb = [ 1, 1, 1, 1, 1, 1, 1, 1, 1 ];
ub = [ 16, 16, 16, 16, 16, 16, 16, 16, 16 ];
startstack = [ 'in_0', 'in_1', 'in_2', 'in_3', 'in_4', 'in_5', 'in_6', null, null, null, null, null ];
endstack = [ null, null, null, null, null, null, null, null, null, null, null, null ];
